c random CNF
c satisfiable
p cnf 10 50
4 -2 -6 -8 0
7 -4 -8 -9 0
4 5 6 8 0
4 10 -5 0
4 -6 -10 0
5 -6 -7 -8 0
5 9 -6 -7 0
5 -1 -5 0
5 6 -7 -9 0
9 -7 0
3 6 9 -2 0
2 3 9 10 0
3 10 -7 -8 0
1 -3 -7 -10 0
3 -2 -8 -9 0
8 9 -6 -8 0
1 3 -5 -8 0
-2 -5 -9 0
-1 -4 -7 -8 0
2 3 4 0
6 7 10 -9 0
2 -1 -6 -9 0
1 2 8 -2 0
7 -1 -7 -9 0
-1 -7 -9 -10 0
3 10 -7 -9 0
1 4 -2 0
10 -5 0
2 6 -9 0
1 2 7 -5 0
1 8 -5 -10 0
1 3 9 -5 0
7 -3 -5 -6 0
1 5 -7 -10 0
2 3 5 -9 0
1 2 9 -9 0
1 3 8 9 0
6 9 -7 0
9 -1 -2 0
7 -4 -10 0
7 -2 -5 0
5 7 0
7 9 -6 -7 0
4 8 -3 -6 0
1 2 -1 0
4 7 8 9 0
1 3 -8 0
1 4 5 -3 0
2 -4 -9 -10 0
5 -7 -9 0